benchmarks/crosswords/mzn/crossword3_16.res
REGULAR
REGULAR
REGULAR
REGULAR
REGULAR
REGULAR
REGULAR
REGULAR
REGULAR
REGULAR
REGULAR
REGULAR
REGULAR
REGULAR
REGULAR
REGULAR
REGULAR
REGULAR
REGULAR
REGULAR
REGULAR
REGULAR
REGULAR
REGULAR
REGULAR
REGULAR
REGULAR
REGULAR
REGULAR
REGULAR
REGULAR
REGULAR
REGULAR
REGULAR
REGULAR
REGULAR
REGULAR
REGULAR
REGULAR
REGULAR
REGULAR
REGULAR
REGULAR
REGULAR
REGULAR
REGULAR
REGULAR
REGULAR
REGULAR
REGULAR
REGULAR
REGULAR
REGULAR
REGULAR
REGULAR
REGULAR
REGULAR
REGULAR
REGULAR
REGULAR
REGULAR
REGULAR
REGULAR
REGULAR
REGULAR
REGULAR
REGULAR
REGULAR
REGULAR
REGULAR
REGULAR
REGULAR
REGULAR
REGULAR
L = array1d(0..193, [1, 23, 1, 12, 19, 19, 5, 5, 19, 19, 4, 5, 5, 14, 5, 18, 1, 4, 11, 3, 25, 5, 4, 5, 20, 14, 1, 14, 1, 9, 14, 15, 3, 1, 18, 4, 9, 13, 1, 9, 13, 1, 3, 3, 1, 12, 1, 13, 1, 12, 1, 19, 18, 1, 13, 14, 8, 15, 10, 4, 14, 1, 1, 9, 16, 1, 5, 11, 1, 14, 19, 4, 5, 14, 14, 21, 16, 20, 9, 14, 21, 19, 5, 11, 15, 18, 20, 19, 25, 5, 11, 1, 18, 9, 16, 15, 8, 12, 12, 5, 2, 5, 8, 3, 4, 5, 6, 1, 19, 8, 3, 21, 15, 22, 19, 11, 19, 1, 14, 1, 1, 14, 1, 3, 4, 5, 3, 1, 12, 5, 20, 14, 1, 4, 21, 3, 19, 5, 3, 9, 7, 14, 9, 3, 5, 9, 16, 1, 2, 2, 21, 8, 19, 4, 14, 5, 19, 9, 18, 25, 20, 9, 12, 1, 18, 15, 13, 1, 25, 22, 5, 8, 3, 5, 7, 18, 21, 16, 15, 8, 3, 19, 5, 18, 3, 1, 11, 19, 1, 2, 19, 4, 15, 19]);
----------

%%  runtime:       12.068 (12068.100 ms)
%%  solvetime:     0.183 (183.134 ms)
%%  solutions:     1
%%  variables:     9997
%%  propagators:   12578
%%  propagations:  415133
%%  nodes:         187
%%  failures:      72
%%  restarts:      0
%%  peak depth:    55

GECODE_TUPLESET_MEM
GECODE_TUPLESET_MEM
GECODE_TUPLESET_MEM
GECODE_TUPLESET_MEM
GECODE_TUPLESET_MEM
GECODE_TUPLESET_MEM
GECODE_TUPLESET_MEM
GECODE_TUPLESET_MEM
GECODE_TUPLESET_MEM
GECODE_TUPLESET_MEM
GECODE_TUPLESET_MEM
GECODE_TUPLESET_MEM
GECODE_TUPLESET_MEM
GECODE_TUPLESET_MEM
GECODE_TUPLESET_MEM
GECODE_TUPLESET_MEM
GECODE_TUPLESET_MEM
GECODE_TUPLESET_MEM
GECODE_TUPLESET_MEM
GECODE_TUPLESET_MEM
GECODE_TUPLESET_MEM
GECODE_TUPLESET_MEM
GECODE_TUPLESET_MEM
GECODE_TUPLESET_MEM
GECODE_TUPLESET_MEM
GECODE_TUPLESET_MEM
GECODE_TUPLESET_MEM
GECODE_TUPLESET_MEM
GECODE_TUPLESET_MEM
GECODE_TUPLESET_MEM
GECODE_TUPLESET_MEM
GECODE_TUPLESET_MEM
GECODE_TUPLESET_MEM
GECODE_TUPLESET_MEM
GECODE_TUPLESET_MEM
GECODE_TUPLESET_MEM
GECODE_TUPLESET_MEM
GECODE_TUPLESET_MEM
GECODE_TUPLESET_MEM
GECODE_TUPLESET_MEM
GECODE_TUPLESET_MEM
GECODE_TUPLESET_MEM
GECODE_TUPLESET_MEM
GECODE_TUPLESET_MEM
GECODE_TUPLESET_MEM
GECODE_TUPLESET_MEM
GECODE_TUPLESET_MEM
GECODE_TUPLESET_MEM
GECODE_TUPLESET_MEM
GECODE_TUPLESET_MEM
GECODE_TUPLESET_MEM
GECODE_TUPLESET_MEM
GECODE_TUPLESET_MEM
GECODE_TUPLESET_MEM
GECODE_TUPLESET_MEM
GECODE_TUPLESET_MEM
GECODE_TUPLESET_MEM
GECODE_TUPLESET_MEM
GECODE_TUPLESET_MEM
GECODE_TUPLESET_MEM
GECODE_TUPLESET_MEM
GECODE_TUPLESET_MEM
GECODE_TUPLESET_MEM
GECODE_TUPLESET_MEM
GECODE_TUPLESET_MEM
GECODE_TUPLESET_MEM
GECODE_TUPLESET_MEM
GECODE_TUPLESET_MEM
GECODE_TUPLESET_MEM
GECODE_TUPLESET_MEM
GECODE_TUPLESET_MEM
GECODE_TUPLESET_MEM
GECODE_TUPLESET_MEM
GECODE_TUPLESET_MEM
L = array1d(0..193, [1, 1, 16, 19, 5, 1, 8, 1, 2, 1, 4, 1, 16, 20, 18, 15, 1, 14, 4, 1, 4, 1, 12, 15, 19, 5, 18, 3, 15, 14, 4, 9, 12, 12, 1, 3, 2, 12, 1, 4, 5, 19, 8, 1, 23, 14, 5, 5, 3, 8, 1, 16, 13, 1, 14, 20, 9, 5, 18, 20, 8, 15, 8, 1, 12, 20, 6, 12, 15, 19, 19, 16, 8, 1, 12, 12, 9, 5, 9, 18, 5, 13, 1, 9, 14, 12, 9, 14, 9, 14, 7, 1, 14, 9, 2, 1, 18, 13, 1, 9, 4, 13, 1, 5, 18, 5, 1, 12, 9, 26, 1, 2, 12, 5, 20, 1, 13, 5, 1, 20, 15, 12, 12, 19, 3, 1, 7, 5, 4, 20, 8, 1, 20, 12, 5, 5, 20, 1, 24, 9, 18, 15, 12, 22, 1, 1, 7, 19, 1, 12, 9, 14, 1, 19, 9, 18, 22, 9, 14, 1, 13, 5, 18, 9, 3, 1, 14, 1, 1, 19, 9, 1, 14, 12, 1, 18, 4, 1, 18, 20, 19, 12, 25, 14, 14, 5, 19, 16, 1, 25, 2, 25, 5, 19]);
----------

%%  runtime:       1.303 (1303.797 ms)
%%  solvetime:     0.519 (519.068 ms)
%%  solutions:     1
%%  variables:     9997
%%  propagators:   12578
%%  propagations:  725783
%%  nodes:         360
%%  failures:      152
%%  restarts:      0
%%  peak depth:    66

GECODE_TUPLESET_SPEED
GECODE_TUPLESET_SPEED
GECODE_TUPLESET_SPEED
GECODE_TUPLESET_SPEED
GECODE_TUPLESET_SPEED
GECODE_TUPLESET_SPEED
GECODE_TUPLESET_SPEED
GECODE_TUPLESET_SPEED
GECODE_TUPLESET_SPEED
GECODE_TUPLESET_SPEED
GECODE_TUPLESET_SPEED
GECODE_TUPLESET_SPEED
GECODE_TUPLESET_SPEED
GECODE_TUPLESET_SPEED
GECODE_TUPLESET_SPEED
GECODE_TUPLESET_SPEED
GECODE_TUPLESET_SPEED
GECODE_TUPLESET_SPEED
GECODE_TUPLESET_SPEED
GECODE_TUPLESET_SPEED
GECODE_TUPLESET_SPEED
GECODE_TUPLESET_SPEED
GECODE_TUPLESET_SPEED
GECODE_TUPLESET_SPEED
GECODE_TUPLESET_SPEED
GECODE_TUPLESET_SPEED
GECODE_TUPLESET_SPEED
GECODE_TUPLESET_SPEED
GECODE_TUPLESET_SPEED
GECODE_TUPLESET_SPEED
GECODE_TUPLESET_SPEED
GECODE_TUPLESET_SPEED
GECODE_TUPLESET_SPEED
GECODE_TUPLESET_SPEED
GECODE_TUPLESET_SPEED
GECODE_TUPLESET_SPEED
GECODE_TUPLESET_SPEED
GECODE_TUPLESET_SPEED
GECODE_TUPLESET_SPEED
GECODE_TUPLESET_SPEED
GECODE_TUPLESET_SPEED
GECODE_TUPLESET_SPEED
GECODE_TUPLESET_SPEED
GECODE_TUPLESET_SPEED
GECODE_TUPLESET_SPEED
GECODE_TUPLESET_SPEED
GECODE_TUPLESET_SPEED
GECODE_TUPLESET_SPEED
GECODE_TUPLESET_SPEED
GECODE_TUPLESET_SPEED
GECODE_TUPLESET_SPEED
GECODE_TUPLESET_SPEED
GECODE_TUPLESET_SPEED
GECODE_TUPLESET_SPEED
GECODE_TUPLESET_SPEED
GECODE_TUPLESET_SPEED
GECODE_TUPLESET_SPEED
GECODE_TUPLESET_SPEED
GECODE_TUPLESET_SPEED
GECODE_TUPLESET_SPEED
GECODE_TUPLESET_SPEED
GECODE_TUPLESET_SPEED
GECODE_TUPLESET_SPEED
GECODE_TUPLESET_SPEED
GECODE_TUPLESET_SPEED
GECODE_TUPLESET_SPEED
GECODE_TUPLESET_SPEED
GECODE_TUPLESET_SPEED
GECODE_TUPLESET_SPEED
GECODE_TUPLESET_SPEED
GECODE_TUPLESET_SPEED
GECODE_TUPLESET_SPEED
GECODE_TUPLESET_SPEED
GECODE_TUPLESET_SPEED
L = array1d(0..193, [1, 1, 16, 19, 5, 1, 8, 1, 2, 1, 4, 1, 16, 20, 18, 15, 1, 14, 4, 1, 4, 1, 12, 15, 19, 5, 18, 3, 15, 14, 4, 9, 12, 12, 1, 3, 2, 12, 1, 4, 5, 19, 8, 1, 23, 14, 5, 5, 3, 8, 1, 16, 13, 1, 14, 20, 9, 5, 18, 20, 8, 15, 8, 1, 12, 20, 6, 12, 15, 19, 19, 16, 8, 1, 12, 12, 9, 5, 9, 18, 5, 13, 1, 9, 14, 12, 9, 14, 9, 14, 7, 1, 14, 9, 2, 1, 18, 13, 1, 9, 4, 13, 1, 5, 18, 5, 1, 12, 9, 26, 1, 2, 12, 5, 20, 1, 13, 5, 1, 20, 15, 12, 12, 19, 3, 1, 7, 5, 4, 20, 8, 1, 20, 12, 5, 5, 20, 1, 24, 9, 18, 15, 12, 22, 1, 1, 7, 19, 1, 12, 9, 14, 1, 19, 9, 18, 22, 9, 14, 1, 13, 5, 18, 9, 3, 1, 14, 1, 1, 19, 9, 1, 14, 12, 1, 18, 4, 1, 18, 20, 19, 12, 25, 14, 14, 5, 19, 16, 1, 25, 2, 25, 5, 19]);
----------

%%  runtime:       1.327 (1327.495 ms)
%%  solvetime:     0.567 (567.761 ms)
%%  solutions:     1
%%  variables:     9997
%%  propagators:   12578
%%  propagations:  733375
%%  nodes:         360
%%  failures:      152
%%  restarts:      0
%%  peak depth:    66

COMPACT_TABLE
COMPACT_TABLE
COMPACT_TABLE
COMPACT_TABLE
COMPACT_TABLE
COMPACT_TABLE
COMPACT_TABLE
COMPACT_TABLE
COMPACT_TABLE
COMPACT_TABLE
COMPACT_TABLE
COMPACT_TABLE
COMPACT_TABLE
COMPACT_TABLE
COMPACT_TABLE
COMPACT_TABLE
COMPACT_TABLE
COMPACT_TABLE
COMPACT_TABLE
COMPACT_TABLE
COMPACT_TABLE
COMPACT_TABLE
COMPACT_TABLE
COMPACT_TABLE
COMPACT_TABLE
COMPACT_TABLE
COMPACT_TABLE
COMPACT_TABLE
COMPACT_TABLE
COMPACT_TABLE
COMPACT_TABLE
COMPACT_TABLE
COMPACT_TABLE
COMPACT_TABLE
COMPACT_TABLE
COMPACT_TABLE
COMPACT_TABLE
COMPACT_TABLE
COMPACT_TABLE
COMPACT_TABLE
COMPACT_TABLE
COMPACT_TABLE
COMPACT_TABLE
COMPACT_TABLE
COMPACT_TABLE
COMPACT_TABLE
COMPACT_TABLE
COMPACT_TABLE
COMPACT_TABLE
COMPACT_TABLE
COMPACT_TABLE
COMPACT_TABLE
COMPACT_TABLE
COMPACT_TABLE
COMPACT_TABLE
COMPACT_TABLE
COMPACT_TABLE
COMPACT_TABLE
COMPACT_TABLE
COMPACT_TABLE
COMPACT_TABLE
COMPACT_TABLE
COMPACT_TABLE
COMPACT_TABLE
COMPACT_TABLE
COMPACT_TABLE
COMPACT_TABLE
COMPACT_TABLE
COMPACT_TABLE
COMPACT_TABLE
COMPACT_TABLE
COMPACT_TABLE
COMPACT_TABLE
COMPACT_TABLE
L = array1d(0..193, [1, 1, 16, 19, 5, 1, 8, 1, 2, 1, 4, 1, 16, 20, 18, 15, 1, 14, 4, 1, 4, 1, 12, 15, 19, 5, 18, 3, 15, 14, 4, 9, 12, 12, 1, 3, 2, 12, 1, 4, 5, 19, 8, 1, 23, 14, 5, 5, 3, 8, 1, 16, 13, 1, 14, 20, 9, 5, 18, 20, 8, 15, 8, 1, 12, 20, 6, 12, 15, 19, 19, 16, 8, 1, 12, 12, 9, 5, 9, 18, 5, 13, 1, 9, 14, 12, 9, 14, 9, 14, 7, 1, 14, 9, 2, 1, 18, 13, 1, 9, 4, 13, 1, 5, 18, 5, 1, 12, 9, 26, 1, 2, 12, 5, 20, 1, 13, 5, 1, 20, 15, 12, 12, 19, 3, 1, 7, 5, 4, 20, 8, 1, 20, 12, 5, 5, 20, 1, 24, 9, 18, 15, 12, 22, 1, 1, 7, 19, 1, 12, 9, 14, 1, 19, 9, 18, 22, 9, 14, 1, 13, 5, 18, 9, 3, 1, 14, 1, 1, 19, 9, 1, 14, 12, 1, 18, 4, 1, 18, 20, 19, 12, 25, 14, 14, 5, 19, 16, 1, 25, 2, 25, 5, 19]);
----------

%%  runtime:       1.222 (1222.008 ms)
%%  solvetime:     0.152 (152.914 ms)
%%  solutions:     1
%%  variables:     9997
%%  propagators:   12578
%%  propagations:  736090
%%  nodes:         360
%%  failures:      152
%%  restarts:      0
%%  peak depth:    66

